Instance name : SB_bar-n100-6
Authors : 
Date : 
Reference 
Solution
Route 1 : 22 37 47 72 97 87 7 4 57 54 5 17 2 67 11 61 28 52 3 78 45 95 14 55 53 64 27 77 36 33 86 83 
Route 2 : 20 29 70 79 12 1 34 48 51 84 62 42 19 92 44 98 13 69 23 73 94 26 49 76 63 39 99 89 
Route 3 : 43 93 16 41 91 18 66 8 15 65 30 80 9 68 35 85 59 10 58 60 24 50 46 100 96 74 
Route 4 : 31 32 82 81 25 38 40 88 21 71 6 75 90 56 
